25 2
25 200
10
7
13
19
26
3
5
9
16
16
12
19
23
20
8
19
2
12
17
9
11
18
29
3
6
35 35 0 230 0 0
41 49 161 171 10 1
35 17 50 60 10 3
55 45 116 126 10 2
55 20 149 159 10 3
15 30 34 44 10 3
25 30 99 109 10 2
20 50 81 91 10 2
10 43 95 105 10 2
55 60 97 107 10 3
30 60 124 134 10 1
20 65 67 77 10 3
50 35 63 73 10 3
30 25 159 169 10 2
15 10 32 42 10 2
30 5 61 71 10 1
10 20 75 85 10 3
5 30 157 167 10 1
20 40 87 97 10 3
15 60 76 86 10 1
45 65 126 136 10 3
45 20 62 72 10 3
45 10 97 107 10 3
55 5 68 78 10 3
65 35 153 163 10 2
65 20 172 182 10 3
25 60 0 230 5 4
15 7 0 230 5 4
0 0
0 1
1 0
0 1
0 1
0 1
1 0
1 0
1 0
0 0
1 0
1 0
0 1
0 1
0 0
0 1
0 0
1 0
0 0
1 0
0 1
0 1
0 1
1 0
0 1
